Octagraphene                            
   1.00000000000000     
     3.7469999999999999    0.0000000000000000    0.0000000000000000
     0.0000000000000000    4.5019999999999998    0.0000000000000000
     0.0000000000000000    0.0000000000000000    3.7000000000000002
   C    K 
     6     1
Direct
  0.1933999999999969  0.3384000000000000  0.5000000000000000
  0.1933999999999969  0.6616000000000000  0.5000000000000000
  0.8066000000000031  0.3384000000000000  0.5000000000000000
  0.8066000000000031  0.6616000000000000  0.5000000000000000
  0.5000000000000000  0.1599000000000004  0.5000000000000000
  0.5000000000000000  0.8400999999999996  0.5000000000000000
  0.5000000000000000  0.5000000000000000  0.0000000000000000
 
  0.00000000E+00  0.00000000E+00  0.00000000E+00
  0.00000000E+00  0.00000000E+00  0.00000000E+00
  0.00000000E+00  0.00000000E+00  0.00000000E+00
  0.00000000E+00  0.00000000E+00  0.00000000E+00
  0.00000000E+00  0.00000000E+00  0.00000000E+00
  0.00000000E+00  0.00000000E+00  0.00000000E+00
  0.00000000E+00  0.00000000E+00  0.00000000E+00
