Octagraphene                            
   1.00000000000000     
     3.8446976188277677    0.0000000000000000   -0.0000000000000000
     0.0000000000000000    4.6361743095217545    0.0000000000000000
    -0.0000000000000000    0.0000000000000000    4.4365165370671820
   C    K 
     6     2
Direct
  0.1899828216207655  0.3374917760324414  0.5000000000000000
  0.1899828216207655  0.6625082239675584  0.5000000000000000
  0.8100171783792345  0.3374917760324414  0.5000000000000000
  0.8100171783792345  0.6625082239675584  0.5000000000000000
  0.5000000000000000  0.1578669783637373  0.5000000000000000
  0.5000000000000000  0.8421330216362628  0.5000000000000000
  0.0000000000000000 -0.0000000000000000 -0.0000000000000000
  0.5000000000000000  0.5000000000000000 -0.0000000000000000
 
  0.00000000E+00  0.00000000E+00  0.00000000E+00
  0.00000000E+00  0.00000000E+00  0.00000000E+00
  0.00000000E+00  0.00000000E+00  0.00000000E+00
  0.00000000E+00  0.00000000E+00  0.00000000E+00
  0.00000000E+00  0.00000000E+00  0.00000000E+00
  0.00000000E+00  0.00000000E+00  0.00000000E+00
  0.00000000E+00  0.00000000E+00  0.00000000E+00
  0.00000000E+00  0.00000000E+00  0.00000000E+00
