num_bands =   24   #num_bands = NBANDS of INCAR >= num_wann
num_wann =    18   #  number of wannier bands  
dis_win_min   = -20.00d0
dis_win_max   = 30d0
dis_froz_min  =  -6.50d0      # energy window
dis_froz_max  =  8.0d0
dis_num_iter  =  1000
num_iter      =  200 
num_print_cycles = 20   
#spinors = .true.

# projections   
begin projections
C : sp2
end projections

use_bloch_phases = F

hr_plot = true
fermi_surface_plot = true
fermi_surface_num_points = 50

bands_plot = true
bands_num_points = 100

begin kpoint_path
G  0.00000  0.00000  0.00000  X  0.50000  0.00000  0.00000
X  0.50000  0.00000  0.00000  M  0.50000  0.50000  0.00000
M  0.50000  0.50000  0.00000  G  0.00000  0.00000  0.00000
X  0.00000  0.00000  0.00000  Y  0.00000  0.50000  0.00000
Y  0.00000  0.50000  0.00000  M  0.50000  0.50000  0.00000
end kpoint_path


begin unit_cell_cart
     3.7470000     0.0000000     0.0000000
     0.0000000     4.5021216     0.0000000
     0.0000000     0.0000000    20.0000000
end unit_cell_cart

begin atoms_cart
C        0.7245399     1.5237098    10.0000000
C        0.7245399     2.9784118    10.0000000
C        3.0224601     1.5237098    10.0000000
C        3.0224601     2.9784118    10.0000000
C        1.8735000     0.7198233    10.0000000
C        1.8735000     3.7822983    10.0000000
end atoms_cart

mp_grid =    16    16     1

begin kpoints
      0.031250000000      0.031250000000      0.000000000000
      0.093750000000      0.031250000000      0.000000000000
      0.156250000000      0.031250000000      0.000000000000
      0.218750000000      0.031250000000      0.000000000000
      0.281250000000      0.031250000000      0.000000000000
      0.343750000000      0.031250000000      0.000000000000
      0.406250000000      0.031250000000      0.000000000000
      0.468750000000      0.031250000000      0.000000000000
      0.031250000000      0.093750000000      0.000000000000
      0.093750000000      0.093750000000      0.000000000000
      0.156250000000      0.093750000000      0.000000000000
      0.218750000000      0.093750000000      0.000000000000
      0.281250000000      0.093750000000      0.000000000000
      0.343750000000      0.093750000000      0.000000000000
      0.406250000000      0.093750000000      0.000000000000
      0.468750000000      0.093750000000      0.000000000000
      0.031250000000      0.156250000000      0.000000000000
      0.093750000000      0.156250000000      0.000000000000
      0.156250000000      0.156250000000      0.000000000000
      0.218750000000      0.156250000000      0.000000000000
      0.281250000000      0.156250000000      0.000000000000
      0.343750000000      0.156250000000      0.000000000000
      0.406250000000      0.156250000000      0.000000000000
      0.468750000000      0.156250000000      0.000000000000
      0.031250000000      0.218750000000      0.000000000000
      0.093750000000      0.218750000000      0.000000000000
      0.156250000000      0.218750000000      0.000000000000
      0.218750000000      0.218750000000      0.000000000000
      0.281250000000      0.218750000000      0.000000000000
      0.343750000000      0.218750000000      0.000000000000
      0.406250000000      0.218750000000      0.000000000000
      0.468750000000      0.218750000000      0.000000000000
      0.031250000000      0.281250000000      0.000000000000
      0.093750000000      0.281250000000      0.000000000000
      0.156250000000      0.281250000000      0.000000000000
      0.218750000000      0.281250000000      0.000000000000
      0.281250000000      0.281250000000      0.000000000000
      0.343750000000      0.281250000000      0.000000000000
      0.406250000000      0.281250000000      0.000000000000
      0.468750000000      0.281250000000      0.000000000000
      0.031250000000      0.343750000000      0.000000000000
      0.093750000000      0.343750000000      0.000000000000
      0.156250000000      0.343750000000      0.000000000000
      0.218750000000      0.343750000000      0.000000000000
      0.281250000000      0.343750000000      0.000000000000
      0.343750000000      0.343750000000      0.000000000000
      0.406250000000      0.343750000000      0.000000000000
      0.468750000000      0.343750000000      0.000000000000
      0.031250000000      0.406250000000      0.000000000000
      0.093750000000      0.406250000000      0.000000000000
      0.156250000000      0.406250000000      0.000000000000
      0.218750000000      0.406250000000      0.000000000000
      0.281250000000      0.406250000000      0.000000000000
      0.343750000000      0.406250000000      0.000000000000
      0.406250000000      0.406250000000      0.000000000000
      0.468750000000      0.406250000000      0.000000000000
      0.031250000000      0.468750000000      0.000000000000
      0.093750000000      0.468750000000      0.000000000000
      0.156250000000      0.468750000000      0.000000000000
      0.218750000000      0.468750000000      0.000000000000
      0.281250000000      0.468750000000      0.000000000000
      0.343750000000      0.468750000000      0.000000000000
      0.406250000000      0.468750000000      0.000000000000
      0.468750000000      0.468750000000      0.000000000000
     -0.031250000000     -0.031250000000      0.000000000000
     -0.031250000000      0.031250000000      0.000000000000
      0.031250000000     -0.031250000000      0.000000000000
     -0.093750000000     -0.031250000000      0.000000000000
     -0.093750000000      0.031250000000      0.000000000000
      0.093750000000     -0.031250000000      0.000000000000
     -0.156250000000     -0.031250000000      0.000000000000
     -0.156250000000      0.031250000000      0.000000000000
      0.156250000000     -0.031250000000      0.000000000000
     -0.218750000000     -0.031250000000      0.000000000000
     -0.218750000000      0.031250000000      0.000000000000
      0.218750000000     -0.031250000000      0.000000000000
     -0.281250000000     -0.031250000000      0.000000000000
     -0.281250000000      0.031250000000      0.000000000000
      0.281250000000     -0.031250000000      0.000000000000
     -0.343750000000     -0.031250000000      0.000000000000
     -0.343750000000      0.031250000000      0.000000000000
      0.343750000000     -0.031250000000      0.000000000000
     -0.406250000000     -0.031250000000      0.000000000000
     -0.406250000000      0.031250000000      0.000000000000
      0.406250000000     -0.031250000000      0.000000000000
     -0.468750000000     -0.031250000000      0.000000000000
     -0.468750000000      0.031250000000      0.000000000000
      0.468750000000     -0.031250000000      0.000000000000
     -0.031250000000     -0.093750000000      0.000000000000
     -0.031250000000      0.093750000000      0.000000000000
      0.031250000000     -0.093750000000      0.000000000000
     -0.093750000000     -0.093750000000      0.000000000000
     -0.093750000000      0.093750000000      0.000000000000
      0.093750000000     -0.093750000000      0.000000000000
     -0.156250000000     -0.093750000000      0.000000000000
     -0.156250000000      0.093750000000      0.000000000000
      0.156250000000     -0.093750000000      0.000000000000
     -0.218750000000     -0.093750000000      0.000000000000
     -0.218750000000      0.093750000000      0.000000000000
      0.218750000000     -0.093750000000      0.000000000000
     -0.281250000000     -0.093750000000      0.000000000000
     -0.281250000000      0.093750000000      0.000000000000
      0.281250000000     -0.093750000000      0.000000000000
     -0.343750000000     -0.093750000000      0.000000000000
     -0.343750000000      0.093750000000      0.000000000000
      0.343750000000     -0.093750000000      0.000000000000
     -0.406250000000     -0.093750000000      0.000000000000
     -0.406250000000      0.093750000000      0.000000000000
      0.406250000000     -0.093750000000      0.000000000000
     -0.468750000000     -0.093750000000      0.000000000000
     -0.468750000000      0.093750000000      0.000000000000
      0.468750000000     -0.093750000000      0.000000000000
     -0.031250000000     -0.156250000000      0.000000000000
     -0.031250000000      0.156250000000      0.000000000000
      0.031250000000     -0.156250000000      0.000000000000
     -0.093750000000     -0.156250000000      0.000000000000
     -0.093750000000      0.156250000000      0.000000000000
      0.093750000000     -0.156250000000      0.000000000000
     -0.156250000000     -0.156250000000      0.000000000000
     -0.156250000000      0.156250000000      0.000000000000
      0.156250000000     -0.156250000000      0.000000000000
     -0.218750000000     -0.156250000000      0.000000000000
     -0.218750000000      0.156250000000      0.000000000000
      0.218750000000     -0.156250000000      0.000000000000
     -0.281250000000     -0.156250000000      0.000000000000
     -0.281250000000      0.156250000000      0.000000000000
      0.281250000000     -0.156250000000      0.000000000000
     -0.343750000000     -0.156250000000      0.000000000000
     -0.343750000000      0.156250000000      0.000000000000
      0.343750000000     -0.156250000000      0.000000000000
     -0.406250000000     -0.156250000000      0.000000000000
     -0.406250000000      0.156250000000      0.000000000000
      0.406250000000     -0.156250000000      0.000000000000
     -0.468750000000     -0.156250000000      0.000000000000
     -0.468750000000      0.156250000000      0.000000000000
      0.468750000000     -0.156250000000      0.000000000000
     -0.031250000000     -0.218750000000      0.000000000000
     -0.031250000000      0.218750000000      0.000000000000
      0.031250000000     -0.218750000000      0.000000000000
     -0.093750000000     -0.218750000000      0.000000000000
     -0.093750000000      0.218750000000      0.000000000000
      0.093750000000     -0.218750000000      0.000000000000
     -0.156250000000     -0.218750000000      0.000000000000
     -0.156250000000      0.218750000000      0.000000000000
      0.156250000000     -0.218750000000      0.000000000000
     -0.218750000000     -0.218750000000      0.000000000000
     -0.218750000000      0.218750000000      0.000000000000
      0.218750000000     -0.218750000000      0.000000000000
     -0.281250000000     -0.218750000000      0.000000000000
     -0.281250000000      0.218750000000      0.000000000000
      0.281250000000     -0.218750000000      0.000000000000
     -0.343750000000     -0.218750000000      0.000000000000
     -0.343750000000      0.218750000000      0.000000000000
      0.343750000000     -0.218750000000      0.000000000000
     -0.406250000000     -0.218750000000      0.000000000000
     -0.406250000000      0.218750000000      0.000000000000
      0.406250000000     -0.218750000000      0.000000000000
     -0.468750000000     -0.218750000000      0.000000000000
     -0.468750000000      0.218750000000      0.000000000000
      0.468750000000     -0.218750000000      0.000000000000
     -0.031250000000     -0.281250000000      0.000000000000
     -0.031250000000      0.281250000000      0.000000000000
      0.031250000000     -0.281250000000      0.000000000000
     -0.093750000000     -0.281250000000      0.000000000000
     -0.093750000000      0.281250000000      0.000000000000
      0.093750000000     -0.281250000000      0.000000000000
     -0.156250000000     -0.281250000000      0.000000000000
     -0.156250000000      0.281250000000      0.000000000000
      0.156250000000     -0.281250000000      0.000000000000
     -0.218750000000     -0.281250000000      0.000000000000
     -0.218750000000      0.281250000000      0.000000000000
      0.218750000000     -0.281250000000      0.000000000000
     -0.281250000000     -0.281250000000      0.000000000000
     -0.281250000000      0.281250000000      0.000000000000
      0.281250000000     -0.281250000000      0.000000000000
     -0.343750000000     -0.281250000000      0.000000000000
     -0.343750000000      0.281250000000      0.000000000000
      0.343750000000     -0.281250000000      0.000000000000
     -0.406250000000     -0.281250000000      0.000000000000
     -0.406250000000      0.281250000000      0.000000000000
      0.406250000000     -0.281250000000      0.000000000000
     -0.468750000000     -0.281250000000      0.000000000000
     -0.468750000000      0.281250000000      0.000000000000
      0.468750000000     -0.281250000000      0.000000000000
     -0.031250000000     -0.343750000000      0.000000000000
     -0.031250000000      0.343750000000      0.000000000000
      0.031250000000     -0.343750000000      0.000000000000
     -0.093750000000     -0.343750000000      0.000000000000
     -0.093750000000      0.343750000000      0.000000000000
      0.093750000000     -0.343750000000      0.000000000000
     -0.156250000000     -0.343750000000      0.000000000000
     -0.156250000000      0.343750000000      0.000000000000
      0.156250000000     -0.343750000000      0.000000000000
     -0.218750000000     -0.343750000000      0.000000000000
     -0.218750000000      0.343750000000      0.000000000000
      0.218750000000     -0.343750000000      0.000000000000
     -0.281250000000     -0.343750000000      0.000000000000
     -0.281250000000      0.343750000000      0.000000000000
      0.281250000000     -0.343750000000      0.000000000000
     -0.343750000000     -0.343750000000      0.000000000000
     -0.343750000000      0.343750000000      0.000000000000
      0.343750000000     -0.343750000000      0.000000000000
     -0.406250000000     -0.343750000000      0.000000000000
     -0.406250000000      0.343750000000      0.000000000000
      0.406250000000     -0.343750000000      0.000000000000
     -0.468750000000     -0.343750000000      0.000000000000
     -0.468750000000      0.343750000000      0.000000000000
      0.468750000000     -0.343750000000      0.000000000000
     -0.031250000000     -0.406250000000      0.000000000000
     -0.031250000000      0.406250000000      0.000000000000
      0.031250000000     -0.406250000000      0.000000000000
     -0.093750000000     -0.406250000000      0.000000000000
     -0.093750000000      0.406250000000      0.000000000000
      0.093750000000     -0.406250000000      0.000000000000
     -0.156250000000     -0.406250000000      0.000000000000
     -0.156250000000      0.406250000000      0.000000000000
      0.156250000000     -0.406250000000      0.000000000000
     -0.218750000000     -0.406250000000      0.000000000000
     -0.218750000000      0.406250000000      0.000000000000
      0.218750000000     -0.406250000000      0.000000000000
     -0.281250000000     -0.406250000000      0.000000000000
     -0.281250000000      0.406250000000      0.000000000000
      0.281250000000     -0.406250000000      0.000000000000
     -0.343750000000     -0.406250000000      0.000000000000
     -0.343750000000      0.406250000000      0.000000000000
      0.343750000000     -0.406250000000      0.000000000000
     -0.406250000000     -0.406250000000      0.000000000000
     -0.406250000000      0.406250000000      0.000000000000
      0.406250000000     -0.406250000000      0.000000000000
     -0.468750000000     -0.406250000000      0.000000000000
     -0.468750000000      0.406250000000      0.000000000000
      0.468750000000     -0.406250000000      0.000000000000
     -0.031250000000     -0.468750000000      0.000000000000
     -0.031250000000      0.468750000000      0.000000000000
      0.031250000000     -0.468750000000      0.000000000000
     -0.093750000000     -0.468750000000      0.000000000000
     -0.093750000000      0.468750000000      0.000000000000
      0.093750000000     -0.468750000000      0.000000000000
     -0.156250000000     -0.468750000000      0.000000000000
     -0.156250000000      0.468750000000      0.000000000000
      0.156250000000     -0.468750000000      0.000000000000
     -0.218750000000     -0.468750000000      0.000000000000
     -0.218750000000      0.468750000000      0.000000000000
      0.218750000000     -0.468750000000      0.000000000000
     -0.281250000000     -0.468750000000      0.000000000000
     -0.281250000000      0.468750000000      0.000000000000
      0.281250000000     -0.468750000000      0.000000000000
     -0.343750000000     -0.468750000000      0.000000000000
     -0.343750000000      0.468750000000      0.000000000000
      0.343750000000     -0.468750000000      0.000000000000
     -0.406250000000     -0.468750000000      0.000000000000
     -0.406250000000      0.468750000000      0.000000000000
      0.406250000000     -0.468750000000      0.000000000000
     -0.468750000000     -0.468750000000      0.000000000000
     -0.468750000000      0.468750000000      0.000000000000
      0.468750000000     -0.468750000000      0.000000000000
end kpoints
